211 5
10 10 10 10 10 

0 0 0 0 0 0 1 2 
0 0 0 0 0 0 1 3 
6 1 0 0 0 0 1 4 
7 3 0 0 0 0 1 5 
1 2 0 0 0 0 2 7 6 
3 3 0 0 0 0 2 9 8 
2 2 0 0 0 0 2 9 8 
1 1 0 0 0 0 2 11 10 
2 5 0 0 0 0 2 11 10 
7 3 0 0 0 0 1 12 
1 2 0 0 0 0 1 12 
9 3 0 0 0 0 1 13 
0 0 0 0 0 0 2 14 26 
0 0 0 0 0 0 3 15 18 19 
1 0 0 0 0 1 1 16 
3 0 0 0 0 5 1 17 
10 0 0 0 0 4 1 20 
10 0 0 0 0 1 1 20 
8 0 0 0 0 1 3 24 22 87 
8 0 0 0 0 3 1 21 
7 0 0 0 0 2 1 22 
7 0 0 0 0 3 1 23 
9 0 0 0 0 1 1 25 
2 0 0 0 0 4 1 25 
0 0 0 0 0 0 2 48 60 
0 0 0 0 0 0 2 27 29 
2 0 1 0 0 1 1 28 
2 0 1 0 0 3 2 32 30 
5 0 5 0 0 3 2 32 30 
9 0 4 0 0 2 1 31 
1 0 3 0 0 2 2 35 33 
6 0 2 0 0 2 3 38 35 34 
6 0 5 0 0 3 2 38 34 
1 0 2 0 0 3 1 36 
4 0 3 0 0 2 1 36 
10 0 1 0 0 3 1 37 
6 0 2 0 0 2 1 39 
3 0 1 0 0 3 1 39 
4 0 3 0 0 4 1 40 
5 0 1 0 0 2 1 41 
1 0 3 0 0 2 1 42 
7 0 1 0 0 2 2 45 43 
5 0 2 0 0 1 2 44 202 
6 0 6 0 0 3 1 46 
1 0 2 0 0 3 1 46 
8 0 2 0 0 4 1 47 
0 0 0 0 0 0 1 72 
0 0 0 0 0 0 3 49 55 57 
5 0 0 0 0 1 1 50 
5 0 0 0 0 4 3 53 51 158 
5 0 0 0 0 2 1 52 
4 0 0 0 0 3 1 54 
5 0 0 0 0 3 1 54 
4 0 0 0 0 4 1 56 
3 0 0 0 0 1 1 56 
1 0 0 0 0 1 1 58 
8 0 0 0 0 3 1 58 
5 0 0 0 0 3 1 59 
0 0 0 0 0 0 1 72 
0 0 0 0 0 0 2 61 63 
2 0 0 1 0 0 1 62 
6 0 0 1 0 0 1 64 
10 0 0 4 0 0 3 70 67 66 
7 0 0 3 0 0 1 65 
8 0 0 1 0 0 2 70 66 
10 0 0 2 0 0 1 68 
4 0 0 1 0 0 1 68 
10 0 0 2 0 0 1 69 
1 0 0 6 0 0 1 71 
9 0 0 4 0 0 1 71 
0 0 0 0 0 0 1 72 
0 0 0 0 0 0 4 73 95 117 139 
0 0 0 0 0 0 3 74 92 93 
5 1 0 1 0 0 2 91 75 
3 2 0 2 0 0 1 76 
4 2 0 3 0 0 1 77 
5 3 0 1 0 0 2 90 78 
1 2 0 3 0 0 1 79 
4 3 0 2 0 0 2 86 80 
2 3 0 4 0 0 1 81 
4 3 0 5 0 0 1 82 
4 3 0 2 0 0 1 83 
6 2 0 2 0 0 1 84 
9 6 0 3 0 0 1 85 
1 2 0 1 0 0 1 87 
10 3 0 3 0 0 1 87 
3 4 0 1 0 0 1 88 
9 1 0 3 0 0 1 89 
5 1 0 2 0 0 1 94 
8 4 0 4 0 0 1 94 
6 2 0 3 0 0 1 94 
10 1 0 1 0 0 1 94 
2 2 0 4 0 0 1 94 
0 0 0 0 0 0 1 211 
0 0 0 0 0 0 2 96 98 
7 0 1 0 1 0 2 101 97 
10 0 3 0 3 0 1 99 
6 0 2 0 2 0 1 99 
7 0 3 0 2 0 1 100 
9 0 3 0 1 0 1 102 
2 0 5 0 3 0 1 102 
10 0 4 0 3 0 2 108 103 
1 0 1 0 2 0 2 115 104 
5 0 3 0 3 0 1 105 
2 0 3 0 3 0 1 106 
2 0 1 0 2 0 2 114 107 
2 0 2 0 2 0 1 109 
1 0 3 0 1 0 1 109 
10 0 2 0 3 0 1 110 
5 0 1 0 6 0 1 111 
2 0 2 0 2 0 1 112 
7 0 3 0 3 0 1 113 
9 0 3 0 3 0 1 116 
10 0 3 0 4 0 1 116 
1 0 2 0 1 0 1 116 
0 0 0 0 0 0 1 211 
0 0 0 0 0 0 3 118 124 127 
1 1 0 1 0 0 1 119 
8 3 0 2 0 0 1 120 
3 1 0 2 0 0 1 121 
4 2 0 5 0 0 1 122 
2 3 0 1 0 0 2 132 123 
5 2 0 3 0 0 1 125 
7 4 0 2 0 0 1 125 
4 2 0 1 0 0 1 126 
7 4 0 1 0 0 2 137 128 
2 4 0 5 0 0 2 133 128 
9 2 0 1 0 0 1 129 
3 1 0 1 0 0 1 130 
8 3 0 4 0 0 1 131 
7 1 0 2 0 0 1 134 
6 3 0 2 0 0 1 134 
7 2 0 4 0 0 1 134 
10 3 0 3 0 0 1 135 
4 4 0 2 0 0 1 136 
3 1 0 5 0 0 1 138 
8 4 0 3 0 0 1 138 
0 0 0 0 0 0 1 211 
0 0 0 0 0 0 2 140 143 
9 0 0 0 0 1 1 141 
1 0 0 0 0 2 1 142 
6 0 0 0 0 2 2 145 144 
1 0 0 0 0 3 2 147 145 
10 0 0 0 0 3 2 147 146 
8 0 0 0 0 2 1 146 
3 0 0 0 0 3 1 148 
3 0 0 0 0 4 1 148 
9 0 0 0 0 1 1 149 
7 0 0 0 0 4 1 150 
0 0 0 0 0 0 5 151 163 175 187 199 
0 0 0 0 0 0 1 152 
4 1 0 0 0 0 2 156 153 
3 5 0 0 0 0 1 154 
1 1 0 0 0 0 2 159 155 
6 4 0 0 0 0 1 157 
1 3 0 0 0 0 1 157 
10 4 0 0 0 0 1 158 
4 2 0 0 0 0 2 161 160 
5 1 0 0 0 0 2 161 160 
10 3 0 0 0 0 1 162 
10 1 0 0 0 0 1 162 
0 0 0 0 0 0 1 211 
0 0 0 0 0 0 1 164 
2 0 0 0 0 1 2 166 165 
8 0 0 0 0 2 2 173 167 
7 0 0 0 0 4 1 167 
1 0 0 0 0 2 2 170 168 
8 0 0 0 0 2 1 169 
6 0 0 0 0 2 1 171 
3 0 0 0 0 2 1 171 
9 0 0 0 0 3 1 172 
7 0 0 0 0 3 1 174 
3 0 0 0 0 4 1 174 
0 0 0 0 0 0 1 211 
0 0 0 0 0 0 2 176 179 
9 0 1 0 0 0 1 177 
10 0 3 0 0 0 1 178 
9 0 4 0 0 0 2 181 180 
7 0 2 0 0 0 2 182 180 
5 0 3 0 0 0 1 183 
2 0 3 0 0 0 1 182 
9 0 1 0 0 0 1 184 
3 0 2 0 0 0 1 184 
10 0 3 0 0 0 1 185 
6 0 3 0 0 0 1 186 
0 0 0 0 0 0 1 211 
0 0 0 0 0 0 2 188 189 
8 0 1 0 0 0 2 196 190 
10 0 4 0 0 0 2 196 192 
5 0 2 0 0 0 1 191 
8 0 2 0 0 0 1 193 
7 0 3 0 0 0 1 193 
4 0 2 0 0 0 1 194 
8 0 5 0 0 0 1 195 
2 0 2 0 0 0 1 197 
4 0 2 0 0 0 1 197 
5 0 2 0 0 0 1 198 
0 0 0 0 0 0 1 211 
0 0 0 0 0 0 1 200 
7 0 0 0 1 0 1 201 
4 0 0 0 3 0 1 202 
1 0 0 0 1 0 1 203 
7 0 0 0 3 0 2 205 204 
10 0 0 0 3 0 2 209 206 
10 0 0 0 3 0 3 209 208 207 
5 0 0 0 3 0 2 208 207 
5 0 0 0 2 0 1 210 
6 0 0 0 2 0 1 210 
5 0 0 0 4 0 1 210 
0 0 0 0 0 0 1 211 
0 0 0 0 0 0 0 
